
Gurobi 11.0.3 (mac64[x86]) logging started Wed Apr  9 14:00:06 2025

Set parameter LogFile to value "Results/Conservative_experiment/sanity_check_v26_none.log"
Set parameter TimeLimit to value 84600
Set parameter Method to value 2
Set parameter Crossover to value 0
Set parameter BarConvTol to value 1e-10
Gurobi Optimizer version 11.0.3 build v11.0.3rc0 (mac64[x86] - Darwin 23.4.0 23E214)

CPU model: Intel(R) Core(TM) i7-1060NG7 CPU @ 1.20GHz
Thread count: 4 physical cores, 8 logical processors, using up to 8 threads

Optimize a model with 1494624 rows, 1917920 columns and 7072112 nonzeros
Model fingerprint: 0x558f0dc0
Coefficient statistics:
  Matrix range     [2e-01, 1e+00]
  Objective range  [6e-05, 2e+00]
  Bounds range     [0e+00, 0e+00]
  RHS range        [1e-02, 1e+03]
Presolve removed 1196402 rows and 1383341 columns (presolve time = 5s) ...
Presolve removed 1197122 rows and 1383357 columns
Presolve time: 5.65s
Presolved: 297502 rows, 534627 columns, 1909361 nonzeros
Ordering time: 0.69s

Barrier statistics:
 AA' NZ     : 3.556e+05
 Factor NZ  : 5.929e+06 (roughly 90 MB of memory)
 Factor Ops : 3.592e+09 (less than 1 second per iteration)
 Threads    : 4

                  Objective                Residual
Iter       Primal          Dual         Primal    Dual     Compl     Time
   0   2.89066064e+06  3.26880660e+09  4.14e+03 2.10e+03  4.24e+06     7s
   1  -3.52557199e+06  2.99647251e+09  9.32e+02 2.71e+03  1.35e+06     7s
   2  -3.62274042e+06  1.38819984e+09  1.34e+02 3.83e+01  5.58e+04     8s
   3  -3.26593543e+06  3.22107513e+08  1.21e+01 2.76e+00  7.50e+03     8s
   4  -2.98159644e+06  5.15181663e+07  6.56e-01 9.27e-02  6.88e+02     8s
   5  -6.64479851e+05  4.41708467e+06  3.66e-03 5.71e-03  5.50e+01     8s
   6   6.10508805e+03  2.90772026e+05  2.81e-05 4.07e-05  3.07e+00     8s
   7   3.75451292e+04  6.34521312e+04  6.70e-07 2.10e-13  2.75e-01     9s
   8   4.38348896e+04  5.35237860e+04  5.21e-08 9.24e-14  1.01e-01     9s
   9   4.51968160e+04  4.80059214e+04  7.80e-09 2.31e-14  2.91e-02     9s
  10   4.56468528e+04  4.67365929e+04  3.17e-09 7.55e-15  1.13e-02     9s
  11   4.58795923e+04  4.64582520e+04  1.41e-09 4.22e-15  5.98e-03     9s
  12   4.60102446e+04  4.62765974e+04  5.94e-10 3.55e-15  2.75e-03    10s
  13   4.60806759e+04  4.62100870e+04  2.04e-10 3.55e-15  1.34e-03    10s
  14   4.61140856e+04  4.61440130e+04  4.36e-11 1.78e-15  3.09e-04    10s
  15   4.61240149e+04  4.61303538e+04  7.34e-11 3.55e-15  6.55e-05    10s
  16   4.61254239e+04  4.61265479e+04  1.31e-10 3.55e-15  1.16e-05    10s
  17   4.61257894e+04  4.61261220e+04  1.39e-10 3.55e-15  3.43e-06    11s
  18   4.61258909e+04  4.61260596e+04  1.16e-10 3.55e-15  1.74e-06    11s
  19   4.61259571e+04  4.61260287e+04  3.28e-10 3.55e-15  7.40e-07    11s
  20   4.61259863e+04  4.61260146e+04  1.57e-10 3.55e-15  2.92e-07    11s
  21   4.61260043e+04  4.61260089e+04  1.17e-09 1.82e-12  4.74e-08    11s
  22   4.61260079e+04  4.61260084e+04  2.00e-08 1.82e-12  5.54e-09    12s
  23   4.61260083e+04  4.61260083e+04  4.11e-09 1.82e-12  6.87e-11    12s
  24   4.61260083e+04  4.61260083e+04  2.22e-09 1.82e-12  6.87e-14    12s

Barrier solved model in 24 iterations and 11.98 seconds (7.71 work units)
Optimal objective 4.61260083e+04

